(set-logic LIA) (declare-var xPostExec Int) (declare-var J17 Bool) (declare-var B5 Bool) (declare-var y!M8 Int) (declare-var x!M8 Int) (declare-var yPostExec Int) (declare-var y!23 Int) (declare-var inI1 Int) (declare-var y!M32 Int) (declare-var inI0 Int) (declare-var x!38 Int) (declare-var J12 Bool) (declare-var y!31 Int) (synth-fun rankingFunction!0 ((arg0 Int) (arg1 Int)) Int ((NTInt Int) (NTbool Bool)) ((NTInt Int (arg0 arg1 0 1 (- NTInt) (+ NTInt NTInt) (- NTInt NTInt) (ite NTbool NTInt NTInt))) (NTbool Bool ((not NTbool) (and NTbool NTbool) (or NTbool NTbool) (ite NTbool NTbool NTbool) (= NTInt NTInt) (< NTInt NTInt) (> NTInt NTInt))))) (constraint (=> (and (and (and (and (and (and (and (and (and (and (and (and (and (= J12 (not (<= 0 y!M8))) (= J17 (not (<= x!M8 50)))) (= y!31 (+ (- 1) y!M8))) (= y!23 (+ 1 y!M8))) (=> (and (not J12) J17) (= y!M32 y!31))) (=> (and (not J12) (not J17)) (= y!M32 y!23))) (= B5 (or (and (not J12) J17) (and (not J12) (not J17))))) (= x!38 (+ 1 x!M8))) (=> B5 (= xPostExec x!38))) (=> B5 (= yPostExec y!M32))) B5) (= inI0 0)) (= inI1 0)) (>= x!M8 0)) (and (> (rankingFunction!0 x!M8 y!M8) (rankingFunction!0 xPostExec yPostExec)) (>= (rankingFunction!0 x!M8 y!M8) 0)))) (check-synth)